TOUR_SECTION
2
124
62
118
92
82
32
69
172
75
127
28
200
199
193
22
186
17
54
46
57
119
96
7
81
198
116
29
53
42
83
86
11
194
33
136
114
18
98
180
196
117
135
144
6
94
23
1
156
100
171
148
102
99
101
79
80
161
107
195
153
132
30
183
125
175
106
167
134
150
16
155
65
179
126
130
68
177
19
147
10
88
188
95
142
37
3
97
12
44
52
145
197
192
59
56
174
49
109
50
60
14
165
90
104
111
162
168
5
85
139
25
128
40
73
143
163
103
140
70
71
182
151
187
58
184
110
64
84
4
113
178
129
158
170
26
34
189
149
72
67
39
108
160
48
87
159
122
45
115
131
138
191
164
166
123
21
74
190
43
120
121
38
146
8
169
185
78
173
27
105
93
77
15
66
9
63
20
91
24
137
176
51
13
61
41
152
76
31
154
35
112
47
55
36
89
157
141
133
181
-1
EOF